benchmarks/bfuzz0/928261522642077672329323411412620363.smt2
(set-logic QF_FP)
(declare-const x0 (_ FloatingPoint 8 24))
(declare-const x1 (_ FloatingPoint 8 24))
(declare-const x2 (_ FloatingPoint 8 24))
(declare-const x3 (_ FloatingPoint 8 24))
(declare-const x4 (_ FloatingPoint 8 24))
(declare-const x5 (_ FloatingPoint 8 24))
(declare-const x6 (_ FloatingPoint 8 24))
(declare-const x7 (_ FloatingPoint 8 24))
(declare-const x8 (_ FloatingPoint 8 24))
(declare-const x9 (_ FloatingPoint 8 24))
(declare-const x10 (_ FloatingPoint 8 24))
(declare-const x11 (_ FloatingPoint 8 24))
(declare-const x12 (_ FloatingPoint 8 24))
(declare-const x13 (_ FloatingPoint 8 24))
(assert (fp.leq (fp.add RNE x0 x3) (fp.div RNE x0 x8)))
(assert (fp.gt (fp.add RNE x11 x13) (fp.neg x2)))
(assert (fp.gt (fp.sub RNE x5 x4) (fp.mul RNE x1 x3)))
(assert (fp.gt (fp.neg x3) (fp.neg x3)))
(assert (fp.eq (fp.sub RNE x9 x4) (fp.add RNE x12 x1)))
(assert (fp.lt (fp.sub RNE x4 x8) (fp.sub RNE x3 x12)))
(assert (fp.leq (fp.mul RNE x6 x10) (fp.div RNE x8 x10)))
(assert (fp.gt (fp.div RNE x12 x1) (fp.div RNE x3 x11)))
(assert (fp.gt (fp.sub RNE x7 x3) (fp.add RNE x3 x10)))
(assert (fp.leq (fp.div RNE x0 x3) (fp.div RNE x4 x8)))
(assert (fp.leq (fp.add RNE x5 x8) (fp.div RNE x3 x5)))
(assert (fp.gt (fp.div RNE x12 x3) (fp.sub RNE x3 x4)))
(assert (fp.lt (fp.mul RNE x8 x4) (fp.neg x6)))
(assert (fp.lt (fp.sub RNE x0 x2) (fp.neg x4)))
(assert (fp.geq (fp.mul RNE x13 x11) (fp.mul RNE x0 x11)))
(assert (fp.geq (fp.neg x6) (fp.sub RNE x6 x7)))
(assert (fp.lt (fp.add RNE x13 x5) (fp.sub RNE x0 x8)))
(assert (fp.lt (fp.mul RNE x2 x13) (fp.div RNE x10 x10)))
(assert (fp.eq (fp.neg x4) (fp.sub RNE x13 x0)))
(assert (fp.gt (fp.div RNE x3 x13) (fp.sub RNE x0 x7)))
(check-sat)
