db/data/928261522642077672329323411412620363.z3.out
unsat
-------------------
.165767837
